p cnf 11 10
-1 2 3 5 6 8 10 11 0 
-2 1 3 5 6 8 10 11 0 
-3 1 2 5 6 8 10 11 0 
-4 7 11 0 
-5 1 2 3 6 8 10 11 0 
-6 1 2 3 5 8 10 11 0 
-7 4 11 0 
-8 1 2 3 5 6 10 -9 11 0 
-8 1 2 3 5 6 10 11 0 
-10 1 2 3 5 6 8 11 0 
